#
# Calculations for different basis sets
#

%Compound

New_Step
! BP86 def2-SVP VeryTightSCF defgrid3 NOAUTOSTART
%id "def2svp"
* xyzfile 0 1 opt1_pme3/15h_pme3_opt.xyz
Step_End

New_Step
! BP86 def2-TZVP VeryTightSCF defgrid3 NOAUTOSTART
%id "def2-tzvp"
* xyzfile 0 1 opt1_pme3/15h_pme3_opt.xyz
Step_End

New_Step
! BP86 def2-QZVP VeryTightSCF defgrid3 NOAUTOSTART
%id "def2-qzvp"
* xyzfile 0 1 opt1_pme3/15h_pme3_opt.xyz
Step_End

EndRun