! wB97X-D4 def2-SVP TightSCF defgrid3 Opt Freq

%pal nprocs 32 end

%loc
  LocMet NEWBOYS
  Occ true
end

*xyz 0 1
 Ru                -0.00925000   -0.25536900   -0.18825300
 P                 -2.28746500   -0.03663900   -0.11703100
 P                  2.27352100   -0.06830600   -0.08987400
 H                 -0.06889200   -1.89070600   -0.78406800
 H                 -0.00404700   -1.35374400   -1.49081600
 H                 -0.01446600    0.53784200   -1.52164500
 H                  0.01480600    1.17573800    0.60021700
 C                 -2.95012190   -0.56050080    1.49506535
 H                 -2.67830283   -1.57901468    1.67848802
 H                 -2.54524700    0.06111202    2.26615147
 H                 -4.01639975   -0.47158430    1.48832708
 C                 -3.27849258   -1.01767353   -1.28657603
 H                 -3.11529979   -0.65848138   -2.28118606
 H                 -2.98721441   -2.04549649   -1.22626851
 H                 -4.31560043   -0.92580454   -1.03986287
 C                 -2.99353443    1.63123739   -0.29606822
 H                 -2.68552369    2.05045558   -1.23110058
 H                 -4.06145695    1.57152268   -0.26647694
 H                 -2.64872920    2.25229819    0.50411477
 C                  3.30964015   -1.13202636   -1.14218389
 H                  3.06891162   -2.15831459   -0.95865669
 H                  3.12779147   -0.90151251   -2.17111267
 H                  4.34136412   -0.96162575   -0.91544774
 C                  2.88603496   -0.46520620    1.57736830
 H                  2.51121860    0.25376857    2.27557169
 H                  2.55124288   -1.44221727    1.85712469
 H                  3.95574764   -0.44051222    1.57959999
 C                  2.98996271    1.57971343   -0.37821965
 H                  4.05267607    1.53173925   -0.26315970
 H                  2.75285457    1.90310986   -1.37023501
 H                  2.58556203    2.27318135    0.32921398
*