! wB97X-D4 def2-SVP TightSCF defgrid3 Opt

%pal nprocs 32 end

%loc
  LocMet NEWBOYS
  Occ true
end

*xyz 0 1
 Ru       -2.26535        1.11979       -2.51773
 P       -3.42085        3.76692       -0.26120
 P       -1.35665       -1.94919        2.79329
 H       -1.69913        0.19855       -1.04383
 H       -1.98426        1.18320        3.60517
 H       -1.06984        2.08095       -3.51145
 H       -3.98821        0.93885       -3.10009
 C       -3.61598        4.17181        1.54916
 H       -4.23366        3.38948        2.03550
 H       -4.10709        5.15791        1.68024
 H       -2.61585        4.19757        2.03087
 C       -2.67533        5.38932       -0.79952
 H       -3.27782        6.24153       -0.42367
 H       -2.64219        5.42713       -1.90764
 H       -1.64180        5.47045       -0.40204
 C       -5.17856        4.12057       -0.78176
 H       -5.84489        3.32273       -0.38783
 H       -5.23607        4.13054       -1.89172
 H       -5.51350        5.10415       -0.38865
 C        0.37203       -2.00417        3.49132
 H        0.99742       -1.24137        2.98362
 H        0.33661       -1.78074        4.57744
 H        0.82575       -3.00578        3.34059
 C       -0.97159       -2.66889        1.11638
 H       -1.92019       -2.89718        0.58836
 H       -0.37664       -3.60058        1.21522
 H       -0.39453       -1.92980        0.52348
 C       -1.99735       -3.50753        3.59315
 H       -1.29414       -4.35082        3.43156
 H       -2.11753       -3.33801        4.68295
 H       -2.98300       -3.76668        3.15488
*