! wB97X-D4 def2-SVP TightSCF defgrid3 Opt

%pal nprocs 32 end

%loc
  LocMet NEWBOYS
  Occ true
end

*xyz 0 1
Ru      -3.4942192574     -0.3546851105     -0.0444752285                 
P       -5.5582084284      2.7209616559      1.0781406743                 
P       -0.6952284189     -1.6753984798      1.9746440910                 
H       -3.6636658286     -2.1585014642      0.1961010909                 
H       -2.6613039414      0.7252861360      1.1729454569                 
H       -5.8198016677     -1.2768499197      0.9801952183                 
H       -4.4488648268      0.5347926325     -1.3248998766                 
C       -5.3107849210      4.4114751639      1.8269354530                 
H       -4.5263270916      4.9533029990      1.2575528896                 
H       -4.9835389364      4.3020389095      2.8809253240                 
H       -6.2517956950      4.9977368041      1.7964960183                 
C       -7.1000414120      2.2565806920      2.0214581943                 
H       -7.5317565200      1.3321204187      1.5850127923                 
H       -7.8521120693      3.0693353553      1.9706319527                 
H       -6.8373231476      2.0686698402      3.0829840827                 
C       -6.3897199432      3.2675749603     -0.4993934431                 
H       -5.6439203742      3.7677884638     -1.1525018097                 
H       -7.2166599807      3.9748800790     -0.2844617338                 
H       -6.7964445503      2.3805517971     -1.0265066647                 
C        1.0001595542     -0.8998697196      2.0303393325                 
H        1.1339187807     -0.2453672943      1.1450466410                 
H        1.0935022595     -0.2881320091      2.9518858436                 
H        1.7898624352     -1.6792391298      2.0299934649                 
C       -0.3894770661     -2.8379277022      0.5480419647                 
H       -1.2405556983     -3.5446795431      0.4621353505                 
H        0.5466225206     -3.4124974790      0.7026095521                 
H       -0.3072955731     -2.2525254138     -0.3906694328                 
C       -0.4524508076     -2.9054680692      3.3549477629                 
H        0.4902308330     -3.4738183372      3.2148313383                 
H       -0.4112042977     -2.3658623629      4.3239812770                 
H       -1.3059961540     -3.6137123823      3.3697560327                 
*