! wB97X-D4 def2-SVP TightSCF defgrid3 Opt

%pal nprocs 32 end

%loc
  LocMet NEWBOYS
  Occ true
end

*xyz 0 1
Ru      -0.2317951159      0.5789267513      0.7854293664                 
P        2.0545222055      2.5767536919     -1.1875418834                 
P       -3.2655224682      1.6676051198      1.0987525098                 
P        3.7805742549     -1.5340079964     -1.1175105424                 
C       -3.4472724321      1.7471017724      2.9534140672                 
H        0.8010474487     -1.3692645703      2.3325426490                 
H       -0.5428893796      0.7636217034      2.5771908308                 
H        0.6203585100      2.9051961633      1.7908822500                 
H       -1.1862573120     -0.1706548775     -1.6203951443                 
H       -2.9641976209      0.8585736024      3.4091771975                 
H       -4.5182266958      1.7654686130      3.2436461026                 
H       -2.9513289258      2.6646251916      3.3314138310                 
C        3.4266939515      3.0696333405     -0.0232046551                 
H        4.0225940297      2.1719986795      0.2411462572                 
H        4.0903801309      3.8228728261     -0.4943263724                 
H        2.9882144369      3.5000633641      0.9005309136                 
C        1.4980562086      4.2947020041     -1.6559541145                 
H        0.9879289178      4.7651236257     -0.7906977579                 
H        0.7868134338      4.2316242968     -2.5060678754                 
H        2.3636187834      4.9222873575     -1.9531495254                 
C       -4.4396932694      3.0527619028      0.6747593088                 
H       -5.4056063760      2.9261899434      1.2065599467                 
H       -4.6242212877      3.0556536261     -0.4191703740                 
H       -3.9860034916      4.0212037856      0.9696375843                 
C       -4.4329459168      0.2455220693      0.7955262310                 
H       -3.9739822286     -0.6918880347      1.1716894236                 
H       -4.6175458842      0.1477783481     -0.2940063151                 
H       -5.3992795203      0.4118735174      1.3154936336                 
C        3.1129414234      2.2408641997     -2.6859052905                 
H        3.7030521038      1.3171851852     -2.5203316302                 
H        3.8062990274      3.0859915341     -2.8753985677                 
H        2.4593824781      2.1009927504     -3.5723383079                 
C        3.6051743385     -3.1660164759     -0.2316809489                 
H        3.2581032542     -2.9849959307      0.8063539092                 
H        2.8576644431     -3.7922239042     -0.7607873816                 
H        4.5751308940     -3.7047675231     -0.2024491962                 
C        4.6607925272     -2.1685429323     -2.6346950051                 
H        5.5191408322     -2.8128268820     -2.3515026249                 
H        5.0321001812     -1.3092435225     -3.2301274756                 
H        3.9517504379     -2.7586703620     -3.2509465277                 
C        5.2822362458     -0.9124952529     -0.2027603196                 
H        5.6742065459     -0.0084029310     -0.7125063474                 
H        6.0756468603     -1.6883408297     -0.1761039587                 
H        4.9963181499     -0.6487941570      0.8361324635                 

*