! wB97X-D4 def2-SVP TightSCF defgrid3 Opt

%pal nprocs 32 end

%loc
  LocMet NEWBOYS
  Occ true
end

*xyz 0 1
 P        0.79443       -4.33409        0.12510
   C       -0.73097       -3.75634        1.02958
   H       -0.83007       -2.65697        0.91647
   H       -0.66738       -4.00710        2.10901
   H       -1.62465       -4.24879        0.59388
   C        0.82705       -6.08005        0.78158
   H        0.72618       -6.08720        1.88700
   H        1.78721       -6.56012        0.50112
   H       -0.01058       -6.65576        0.33669
   C        2.06058       -3.60921        1.28652
   H        3.06662       -3.99367        1.02011
   H        1.83248       -3.88139        2.33804
   H        2.05538       -2.50511        1.18989
*