49

Ru         0.65491        1.38310        0.60109
P          0.77947        3.35362       -0.54233
P          1.75876       -0.47885       -0.20886
H          2.17274        1.84845        0.87801
H          1.00186        0.57125        1.97697
H          0.39989        2.49876        1.75614
H         -0.00696        1.15571       -0.84293
C          1.93297        4.59777        0.18615
C         -0.78107        4.33842       -0.73018
C          1.35447        3.29403       -2.30225
C          1.03135       -2.09163        0.34590
C          1.86388       -0.69226       -2.05435
C          3.49695       -0.70410        0.37931
C          3.01567       -1.50179       -2.65281
H          2.90932       -1.56306       -3.74840
H          3.05911       -2.53048       -2.27017
H          3.98945       -1.03256       -2.44867
H          1.86700        0.32369       -2.47287
H          0.89054       -1.12260       -2.34825
C          1.54946       -3.41151       -0.22350
H          1.33634       -3.50494       -1.29941
H          1.05690       -4.26009        0.27910
H          2.63414       -3.53601       -0.08019
H         -0.04817       -2.00200        0.15481
H          1.14404       -2.07454        1.44268
C          4.48491        0.40498        0.02733
H          4.62285        0.50892       -1.06028
H          5.47358        0.19326        0.46551
H          4.13597        1.37171        0.41709
H          3.86947       -1.67674        0.01915
H          3.40273       -0.77974        1.47526
C          2.82146        2.88656       -2.43039
H          3.07749        2.62305       -3.46921
H          3.04415        2.02272       -1.78879
H          3.49437        3.70189       -2.12181
H          1.17918        4.26838       -2.78846
H          0.70134        2.56311       -2.80657
C          2.09420        5.91674       -0.56798
H          2.53614        5.76892       -1.56573
H          2.76018        6.59919       -0.01552
H          1.13455        6.43875       -0.70683
H          2.89959        4.08137        0.29120
H          1.58192        4.76120        1.21700
C         -1.18356        5.08975        0.54069
H         -2.23190        5.42528        0.48859
H         -0.55998        5.98339        0.69398
H         -1.07276        4.45359        1.43064
H         -1.55844        3.61088       -1.01624
H         -0.67974        5.04199       -1.57386
