22

P          1.86697        1.65430        0.19691
C          1.82827        0.25528        1.42215
C          0.96324        2.99065        1.10584
C          0.58199        1.19251       -1.05700
C         -0.34403        2.66991        1.82819
H         -1.10048        2.23199        1.15790
H         -0.77882        3.59060        2.25054
H         -0.18816        1.97336        2.66588
H          0.80085        3.78114        0.35714
H          1.70440        3.39835        1.81081
C          0.57323       -0.61251        1.52627
H          0.38935       -1.17262        0.59655
H         -0.33369       -0.03209        1.74466
H          0.69039       -1.35455        2.33321
H          2.06552        0.72948        2.39047
H          2.69818       -0.37335        1.19570
C          0.98502        0.07988       -2.02113
H          0.21061       -0.07388       -2.78978
H          1.12702       -0.88207       -1.50366
H          1.92650        0.33155       -2.53132
H          0.40033        2.12259       -1.62273
H         -0.36450        0.93979       -0.55334
