! BP86 def2-QZVP VeryTightSCF defgrid3

*xyz 0 1
  Ru          0.03619028696395      0.60243955989531      0.45744310006533
  P           2.22988902941265      1.08080736263894      0.00663317712692
  P          -2.21355256077573      1.06572696199755      0.29030991444290
  P           0.00422697637652     -1.73832860804498      0.13188653652330
  C           3.10840490295686      0.03130229649509     -1.22131027675437
  C           5.31658854235128      0.96403748768933      3.47357070904612
  C           4.31751220542665     -0.00485401525810      3.35875630254901
  C           3.38457481129996      0.07405112424022      2.32569189302340
  C           2.48502069387103      2.75531305283417     -0.73154230168009
  C           1.95055857608548      3.87391841914672     -0.07598115096026
  C           2.13556833740606      5.15695210134556     -0.58573073523882
  C           2.85245958799445      5.34438930085250     -1.77108914884186
  C           3.38904607734315      4.23999814587841     -2.42995422655437
  C           3.21241991812028      2.95392607171384     -1.90977937563015
  C          -2.56685821481711      2.81177993722875     -0.21761583913372
  C           2.38563885967328     -0.38392979051746     -2.34607731474073
  C          -1.59379464867023      3.55890790757343     -0.89261669861561
  C          -1.86810753570451      4.85525717691407     -1.33184592317573
  C          -3.11975741266166      5.42532295201380     -1.09816421966234
  C          -4.09749919362349      4.68783166459389     -0.42783413861212
  C          -3.82350623738975      3.39006163642485      0.00516450142965
  C          -3.32093721873451      0.91655047731761      1.75980537377906
  C          -2.76447081178405      1.22475611008415      3.00763772606254
  C          -3.52642531294189      1.14203444389690      4.17250407350723
  C          -4.86356000643442      0.74366660220756      4.10583328759724
  C          -5.43215075286579      0.44698982384200      2.86685873670762
  C           2.95979372254906     -1.23589146501038     -3.28812526607700
  C          -4.66767956586853      0.53888384206094      1.70178681307668
  C          -3.14259319420158      0.17028264074249     -1.02725811771264
  C          -3.21694663097720      0.71625861885612     -2.31628418988650
  C          -3.78208163174574     -0.00887916505071     -3.36618091534975
  C          -4.28241411037869     -1.29284623993629     -3.14454669178344
  C          -4.22320658688338     -1.84002740197045     -1.86281577663765
  C          -3.66061306629578     -1.11381312674512     -0.81301523165483
  C           1.42136879494538     -2.62299696554039      0.92044489981565
  C           1.35596467401366     -2.98728060551867      2.27270860317532
  C           2.47262723034819     -3.50858680404338      2.92752920200343
  C           4.27620606840267     -1.67250809862258     -3.11903951280407
  C           3.67532343912586     -3.67654370111994      2.23906221346150
  C           3.74569260091813     -3.33107345799744      0.88948278901111
  C           2.62836161388611     -2.81146926173454      0.23501635316772
  C          -0.04673830891442     -2.47597922003972     -1.55114174334353
  C           0.45154596305658     -3.75154664384621     -1.85008678962985
  C           0.35677110334069     -4.26343501055413     -3.14443216717484
  C          -0.25183472892195     -3.51216221817497     -4.15270508836146
  C          -0.76473151997425     -2.24816415907424     -3.85881889561970
  C          -0.65619858207549     -1.73322021159321     -2.56684231848646
  C          -1.40831119493772     -2.61008912098298      0.94900994920336
  C           5.01413078230064     -1.23838903820938     -2.01572612203697
  C          -1.99519190191732     -3.77392026808572      0.43712994995710
  C          -3.10597761420888     -4.34141087131052      1.06324287456060
  C          -3.64402766612623     -3.75809012195330      2.21292295964427
  C          -3.05452481968054     -2.60973262557994      2.74289247909344
  C          -1.94556413237091     -2.04571163463117      2.11195765273469
  C           4.43409695067799     -0.38964045985579     -1.07022033449278
  C           3.44759002148056      1.10944821166223      1.38461261130144
  C           4.45385450180034      2.07578462085620      1.50344890698001
  C           5.38020848424963      2.00551540983533      2.54642251331172
  H           1.37149654087923      3.73293415801270      0.83972223237532
  H           1.70962717493055      6.01539469343097     -0.05808384838867
  H           2.99167263203401      6.35030258578571     -2.17810392675134
  H           3.95306512016142      4.37402367316753     -3.35769345002290
  H           3.64768599549450      2.10246477740580     -2.43650168873778
  H           2.70509087330834     -2.55452363312508     -0.82138419490576
  H           4.67910263595182     -3.45862110489542      0.33413423203093
  H           4.55299444127187     -4.08025373428142      2.75202673940158
  H           2.39937835278055     -3.78621940463694      3.98319733409954
  H           0.42452921004873     -2.86187884180618      2.82956502072550
  H          -1.60891404165181     -4.22896390949838     -0.47638654501218
  H          -3.56183754536320     -5.24239326035725      0.64196752831211
  H          -4.52372150616283     -4.19748627202403      2.69220913096809
  H          -3.46929307380594     -2.13035518379662      3.63420961240689
  H          -1.51399136813202     -1.12733333300693      2.50967505279103
  H           2.60287415645422     -0.68300142207687      2.24332362452564
  H           4.25838408529296     -0.82766523226648      4.07699134817291
  H           6.04523507914458      0.90937474870836      4.28786419758649
  H           6.15824159914486      2.76976462940037      2.63243230892993
  H           4.51942607808340      2.88989941085181      0.77758821976267
  H           5.01438759876979     -0.07449245027816     -0.20020006795354
  H           1.35411175899292     -0.04924039988355     -2.46270281661813
  H           2.36808762092936     -1.57281630479432     -4.14407120107729
  H           4.72850382874376     -2.35010815061649     -3.84921538274736
  H           6.04815044820478     -1.57065320790886     -1.88320947422293
  H          -4.60126707311058      2.83122093666205      0.52955345637766
  H          -5.08163994752431      5.12569568651981     -0.23676397007908
  H          -3.33435676692592      6.44389629296385     -1.43527338439319
  H          -1.09022781058613      5.42056266984424     -1.85379116145359
  H          -0.61181697840964      3.11690706076952     -1.06697780615913
  H          -1.71504870974255      1.52664795770363      3.06239151816260
  H          -5.13213946708275      0.30974275198034      0.74036010733993
  H          -6.48089550676560      0.14232829597172      2.80321025492522
  H          -3.07323429393645      1.38718197923641      5.13750001338911
  H          -5.46245308240168      0.67027415267493      5.01836412156527
  H          -3.63441980953013     -1.55782021887959      0.18136084456956
  H          -2.82128664994905      1.71626557908143     -2.50820399541937
  H          -3.83069843211162      0.43550678118916     -4.36479447883516
  H          -4.72020921669881     -1.86403103578901     -3.96834330681989
  H          -4.61280772584365     -2.84392647324995     -1.67137292003245
  H           0.92134627059726     -4.35408861629441     -1.06893582703995
  H          -1.03304307096277     -0.73456899348900     -2.34034397676601
  H          -1.25107270792836     -1.65305100390354     -4.63678697818999
  H          -0.32746073068281     -3.91524775544823     -5.16709055148187
  H           0.75830113503765     -5.25665531083535     -3.36582125474049
  H           0.24256997707423      0.01080726843056      2.07758887403617
  H           0.21396547353258      0.90110975452540      2.13070837039056
  H           0.04172128911973      2.18746312255201      0.68884302963978
  H          -0.10366545516975      0.92565863643754     -1.12623455634315
*