73
Coordinates from ORCA-job 15h_opt E -2169.546659321236
  Ru         -0.00930620055248     -0.25659408235193     -0.18961866594074
  P          -2.28745580849242     -0.03732882044945     -0.11793654473147
  P           2.27352009494358     -0.06944986284382     -0.09036420424958
  C          -2.95622008088144     -0.56629445937423      1.51109850147051
  C          -4.68883658440186     -2.65468699009758     -3.10739726380189
  C          -3.80513799691653     -3.22783491743961     -2.18746621793723
  C          -3.10427489565605     -2.41778320929837     -1.29807261476203
  C          -2.99718952156547      1.64277111249108     -0.29793213829594
  C          -2.23278996481684      2.64851534994615     -0.89654837591689
  C          -2.76679148400134      3.92655714444945     -1.07601897292505
  C          -4.06433453417144      4.20940298712946     -0.64917282694432
  C          -4.82957747471168      3.21136858408309     -0.03951681302842
  C          -4.29794013882815      1.93450817698611      0.13499549896322
  C           2.99359001562173      1.59054135199818     -0.38045010497491
  C          -2.20958443615922     -0.21390497226348      2.64507144050971
  C           2.37791761323831      2.43957109494598     -1.30668145053604
  C           2.92530639092808      3.69147680736623     -1.58906969498467
  C           4.08708920534650      4.11044602136378     -0.93794165542074
  C           4.70071720229798      3.27229775842442     -0.00493539450971
  C           4.15752698853447      2.01662656641372      0.27113303774877
  C           3.32032744446920     -1.14317499696664     -1.15246564303781
  C           2.99637648099246     -2.50614689434193     -1.21407199175566
  C           3.75460059886299     -3.38350116999692     -1.98613969253764
  C           4.83970933937714     -2.90414427322535     -2.72533856519032
  C           5.16039729111647     -1.54802795396765     -2.68122396173325
  C          -2.64295948530774     -0.57730231522628      3.91974403855626
  C           4.40727050573273     -0.67101431583617     -1.89528718473413
  C           2.89236999085458     -0.46973168778628      1.59450365405315
  C           2.20850780314633      0.10358392934699      2.67785867807953
  C           2.61272332490748     -0.15521018567413      3.98668519416742
  C           3.70195536566413     -0.99569999529088      4.22969828151414
  C           4.38537732833901     -1.57027289301608      3.15776704890025
  C           3.98428457308510     -1.30823161060229      1.84523548122520
  C          -3.82720064209772     -1.30092763034066      4.07538531141478
  C          -4.57456917628197     -1.65714976805315      2.95180154036924
  C          -4.14165067445737     -1.29260451824240      1.67503952973548
  C          -3.28865285464813     -1.02672264902749     -1.29784096103302
  C          -4.17107741734405     -0.46097856125370     -2.22257018967491
  C          -4.86526944679992     -1.27254283219976     -3.12555922864755
  H          -1.20924395275903      2.42043410790419     -1.20191616582936
  H          -2.16052271134176      4.70749131096343     -1.54407183984827
  H          -4.48045696850840      5.21219263687189     -0.78430587525281
  H          -5.84430306788926      3.43079667763007      0.30501968807067
  H          -4.90071668592121      1.15947308693911      0.61637302873625
  H          -2.40447690968881     -2.86941392693228     -0.58799454555882
  H          -3.65735314130929     -4.31155576293520     -2.16981308381091
  H          -5.23505145030373     -3.28822880808071     -3.81225681143277
  H          -5.54908345775567     -0.81611578893697     -3.84713240086208
  H          -4.32004603044284      0.62088106566034     -2.24633301820320
  H          -4.73189306355512     -1.58101024455052      0.80134612445726
  H          -1.28389822155906      0.35631142210355      2.51675332784771
  H          -2.05130912272140     -0.29694214912428      4.79602834353322
  H          -4.16686366184327     -1.58994073895828      5.07425603777743
  H          -5.50235869920886     -2.22496471473447      3.06810595902412
  H           4.64359007445762      1.36571654828915      1.00288861077439
  H           5.60729995075925      3.59824338257054      0.51319101285962
  H           4.51254740801237      5.09506091118639     -1.15335345428023
  H           2.43665244199385      4.34710894457126     -2.31566700697318
  H           1.45717652723571      2.11130952918014     -1.79499709955774
  H           2.13968084227393     -2.88130508889319     -0.64644819156472
  H           4.67124975119824      0.38855212520917     -1.86731297566806
  H           6.00425882365673     -1.16478426750554     -3.26226585633316
  H           3.49358147965778     -4.44528542396287     -2.01879145914148
  H           5.43147001077880     -3.58917393028492     -3.33947322911759
  H           4.52952696661182     -1.76125916580788      1.01361327582091
  H           1.35820074136904      0.76347674621548      2.48036373509827
  H           2.07380239060479      0.30044689512842      4.82255321804156
  H           4.01776673812217     -1.20273201686367      5.25637517676166
  H           5.23998315314913     -2.22799282183272      3.34152504824376
  H          -0.06930921876257     -1.89181241773900     -0.78529308753803
  H          -0.00333101787364     -1.35514710324078     -1.49212850008604
  H          -0.01442601173765      0.53584871729499     -1.52355106441206
  H           0.01514235393387      1.17458494288674      0.59881219901996
