107
Coordinates from ORCA-job 1b_opt E -3205.724243619154
  Ru          0.03619086269735      0.60252661026098      0.45740062302073
  P           2.22988330096796      1.08087083248275      0.00657662615145
  P          -2.21356066121957      1.06581838553378      0.29029804455665
  P           0.00428047281917     -1.73826033610436      0.13184705085752
  C           3.10839128504934      0.03130804231020     -1.22132893424785
  C           5.31655101228360      0.96406853865600      3.47352050919852
  C           4.31753049240683     -0.00487514915876      3.35862931663830
  C           3.38460108378541      0.07403908360921      2.32555907656125
  C           2.48497461214836      2.75538743022706     -0.73161142219290
  C           1.95068008823794      3.87398264239411     -0.07590066589984
  C           2.13569145257006      5.15703812116181     -0.58558879744484
  C           2.85243495753293      5.34451708258101     -1.77102957843387
  C           3.38882469729293      4.24013545483998     -2.43006961159540
  C           3.21218595933999      2.95403075622381     -1.90996398880734
  C          -2.56687106081941      2.81186902961719     -0.21764764658418
  C           2.38562765396161     -0.38390829427474     -2.34610734423409
  C          -1.59370551509534      3.55905805872297     -0.89243043776075
  C          -1.86800445251779      4.85539350185945     -1.33171592673880
  C          -3.11975227190375      5.42536757638249     -1.09831789079013
  C          -4.09759404182732      4.68780833579341     -0.42820228651325
  C          -3.82359889837878      3.39006797428416      0.00487682987819
  C          -3.32088311280768      0.91666422849597      1.75984267523241
  C          -2.76437374631085      1.22488914061485      3.00764875905844
  C          -3.52628099523699      1.14215914443401      4.17254551414673
  C          -4.86341090979458      0.74376662972247      4.10592699434802
  C          -5.43204888765345      0.44708364631003      2.86697342555813
  C           2.95973933951494     -1.23596450974338     -3.28809753188943
  C          -4.66762345811428      0.53897788289980      1.70187317304029
  C          -3.14270109079921      0.17032125068437     -1.02718363186994
  C          -3.21706092936432      0.71621390458925     -2.31625021221531
  C          -3.78221995642678     -0.00898952523301     -3.36608505918681
  C          -4.28257688623611     -1.29293035711599     -3.14435251769937
  C          -4.22340900550854     -1.84000145043793     -1.86257715623522
  C          -3.66080451275853     -1.11372482919972     -0.81282799225738
  C           1.42136121073554     -2.62293790135076      0.92050071462255
  C           1.35582413868421     -2.98736583702755      2.27272035068766
  C           2.47239075520873     -3.50885205786203      2.92756275565838
  C           4.27608946239103     -1.67273325183217     -3.11890638517623
  C           3.67512545254641     -3.67682301958857      2.23916223945650
  C           3.74563102557397     -3.33117759030614      0.88963449440604
  C           2.62839782335238     -2.81140179764992      0.23514795453408
  C          -0.04655693808541     -2.47591636386216     -1.55119552454424
  C           0.45183585696205     -3.75144554403537     -1.85013319870454
  C           0.35706460278915     -4.26337677500177     -3.14446202740874
  C          -0.25163407063568     -3.51218603042418     -4.15273691785161
  C          -0.76461647122699     -2.24821802970351     -3.85887163228496
  C          -0.65608785842537     -1.73322941300522     -2.56691182103430
  C          -1.40829735059283     -2.61006930323796      0.94885078242610
  C           5.01400773096167     -1.23863401144145     -2.01558659860204
  C          -1.99520439545981     -3.77383321757382      0.43684057905731
  C          -3.10592872034096     -4.34142456612508      1.06297172912301
  C          -3.64386360362968     -3.75829779338765      2.21280814334305
  C          -3.05432891031025     -2.61001483307955      2.74289928098730
  C          -1.94547577545837     -2.04584690040779      2.11190690877296
  C           4.43403836788002     -0.38975399836956     -1.07016442954298
  C           3.44756373787641      1.10951223742960      1.38456724851621
  C           4.45374494181397      2.07591911490183      1.50348992110708
  C           5.38009751891683      2.00563730414278      2.54646687524521
  H           1.37174976636939      3.73296945985930      0.83988126075615
  H           1.70988725166666      6.01547560940730     -0.05782139760813
  H           2.99168295755207      6.35045403463274     -2.17797208951770
  H           3.95272506753150      4.37419078142698     -3.35788032829088
  H           3.64734419076977      2.10258673591871     -2.43680400770143
  H           2.70522763517074     -2.55434755787556     -0.82121615688811
  H           4.67906373261415     -3.45876521679019      0.33432561920753
  H           4.55272096263835     -4.08069192351590      2.75213418737142
  H           2.39902782539791     -3.78663488485327      3.98318606233061
  H           0.42434174393545     -2.86199817463494      2.82950889678321
  H          -1.60897893451952     -4.22875951142877     -0.47676303420743
  H          -3.56180194837466     -5.24236436946065      0.64162176609408
  H          -4.52350081487786     -4.19778941645342      2.69211149142214
  H          -3.46899348169850     -2.13079759046518      3.63434587828421
  H          -1.51384193841751     -1.12754465102324      2.50973521197661
  H           2.60293777818800     -0.68305390002863      2.24312471302756
  H           4.25846737228143     -0.82774903725925      4.07679872241261
  H           6.04520937827139      0.90937460321509      4.28780519913129
  H           6.15807921704587      2.76993315642242      2.63254250198304
  H           4.51924698573236      2.89009639281456      0.77769018282788
  H           5.01433078996796     -0.07463200898939     -0.20013886404558
  H           1.35412487154237     -0.04914997323800     -2.46276851195823
  H           2.36804186727580     -1.57285556782436     -4.14405847231676
  H           4.72835321445182     -2.35041990112763     -3.84902039874813
  H           6.04797489228121     -1.57102842107306     -1.88298817389384
  H          -4.60143899913946      2.83116902304628      0.52909090332238
  H          -5.08181340507240      5.12559715424518     -0.23736838812555
  H          -3.33435209081019      6.44392367911359     -1.43548421454010
  H          -1.09003940312428      5.42076631744885     -1.85346465792729
  H          -0.61165220645927      3.11712273720607     -1.06654157076983
  H          -1.71495978734682      1.52682943994496      3.06235792743745
  H          -5.13212031909851      0.30985456391778      0.74046096847173
  H          -6.48079092341360      0.14240505964582      2.80336428786095
  H          -3.07305757543158      1.38732546211975      5.13752054980901
  H          -5.46226799174176      0.67035795724507      5.01847936208384
  H          -3.63463234844217     -1.55766233078877      0.18158710878336
  H          -2.82132635342870      1.71617307650601     -2.50825947918517
  H          -3.83081428891361      0.43531246893572     -4.36473647245977
  H          -4.72035145854938     -1.86418152761737     -3.96811033669313
  H          -4.61302891250224     -2.84387823490795     -1.67105189312673
  H           0.92170777691776     -4.35393384975347     -1.06898095540230
  H          -1.03299039843764     -0.73460555153872     -2.34043310787793
  H          -1.25103070007053     -1.65316376848970     -4.63683760044131
  H          -0.32728071439616     -3.91532000091348     -5.16710115369910
  H           0.75866120807631     -5.25657145856079     -3.36582921139015
  H           0.24266150152815      0.01091803015840      2.07753353220366
  H           0.21400506246724      0.90122475247717      2.13064600094651
  H           0.04171760698025      2.18756441387640      0.68875554581938
  H          -0.10368307174970      0.92574066440235     -1.12628283197581
