! wB97X-D4 def2-SVP TightSCF defgrid3 Opt

%pal nprocs 32 end

%loc
  LocMet NEWBOYS
  Occ true
end

* xyz 0 1
  Ru        1.17651        2.46320        0.28864
   P       -1.00112       -0.28653       -0.38409
   P        2.87918        5.26420        0.23219
   C       -0.38149       -1.43365        0.98591
   H        3.01080        3.04338        2.69526
   H        1.94136        1.08610        1.21428
   H        0.04493        3.58917        1.17634
   H        1.06543        2.36020       -1.53236
   C       -2.72731        0.32799        0.08956
   C       -1.37936       -1.46898       -1.78838
   C        2.17391        6.89727        0.84078
   C        2.77745        5.43022       -1.64771
   C        4.71629        5.42785        0.64744
   C       -3.84973       -0.69747        0.23286
   H       -3.98640       -1.28223       -0.69642
   H       -4.79912       -0.15669        0.42883
   H       -3.69912       -1.36125        1.09188
   H       -3.03455        1.02255       -0.72221
   H       -2.64629        0.92026        1.02608
   C       -1.13534       -2.73882        1.23184
   H       -1.20640       -3.34972        0.31093
   H       -2.13199       -2.57383        1.65913
   H       -0.57363       -3.33249        1.98360
   H       -0.31138       -0.85606        1.93156
   H        0.65109       -1.71552        0.69194
   C       -0.10746       -2.15109       -2.27847
   H       -0.34396       -2.81160       -3.13998
   H        0.33818       -2.77780       -1.47781
   H        0.64024       -1.39518       -2.60210
   H       -1.81550       -0.88464       -2.62483
   H       -2.10751       -2.24321       -1.48271
   C        3.53393        6.58566       -2.28893
   H        3.19416        7.56545       -1.90186
   H        3.34778        6.57206       -3.38346
   H        4.62365        6.45501       -2.15130
   H        1.70468        5.50707       -1.92039
   H        3.16722        4.48777       -2.08786
   C        0.67129        6.96860        0.60205
   H        0.44290        6.93933       -0.48344
   H        0.27552        7.91713        1.02316
   H        0.16704        6.12096        1.10787
   H        2.67294        7.75759        0.35832
   H        2.77294        7.75759        0.35832
   C        5.29995        6.84271        0.66564
   H        5.22295        7.36308       -0.30208
   H        4.80000        7.45677        1.44265
   H        6.37584        6.78482        0.93413
   H        5.29225        4.76853       -0.03565
   H        4.84258        5.03612        1.67891
*