71
Coordinates from ORCA-job 1b_pet3_opt E -1834.245072584841
  Ru          0.62589466095257      1.46033283793513      0.03533978945821
  P           2.05104556824833      2.79364217401637     -1.17439394410882
  P          -1.34847882341963      0.55044297457933      0.81700070029784
  P           1.84968333340138     -0.52612425417124     -0.12959065177911
  C          -1.50824513842721     -0.11027807568953      2.54060942961217
  H           1.48744324024690      1.59341699044779      1.51149767058013
  H           0.91685508922193      2.32969786474327      1.45664259117109
  H          -0.31100584549410      2.77647278323657     -0.09021922184199
  H          -0.02505045371172      1.11827093449838     -1.41896125025443
  H          -0.87240141631537     -1.00758382799179      2.60363790236407
  H          -2.54189332482929     -0.44802539680577      2.71677091110707
  C           3.51481479567743      3.42152490784941     -0.22486499661546
  H           3.97485456597201      2.53098359116325      0.23122034040759
  H           3.05795999726990      3.97279297902197      0.61539691321622
  C           1.29765761437910      4.37432164149654     -1.76307160634702
  H           1.01400600650996      4.91719663252471     -0.84650411000716
  H           2.05985009984758      4.98096094060358     -2.27894252754418
  C          -2.74797062439049      1.76948442170193      0.74429397737357
  H          -2.96757866302156      1.87884429584686     -0.33173263582443
  H          -2.29524209790619      2.72825380121266      1.03663451167937
  C          -1.95105687873233     -0.88123193263416     -0.19502766000278
  H          -1.17931758041870     -1.65884539640515     -0.07642737069495
  H          -1.85756848547280     -0.53475954365216     -1.23637328435440
  C           2.74746504855927      2.08998854719120     -2.74725236649166
  H           3.54494979814907      1.38896320976424     -2.45204237695933
  H           1.93337003317442      1.46448718268240     -3.14601115125867
  C           1.56100481948393     -1.84199860600800      1.14396538826034
  H           0.49798235873700     -2.12223806868413      1.07459148720772
  H           2.13706899286264     -2.74772501545081      0.89549420314859
  C           1.53509161817159     -1.43276160296509     -1.71306079023880
  H           1.69618571094987     -0.68182413491446     -2.50173850596812
  H           0.44574127818641     -1.59684448769594     -1.70776352569066
  C           3.70193371862799     -0.36472754643514     -0.02492522509339
  H           4.01603041290495      0.12653915292216     -0.95934167763851
  H           3.86860715789832      0.38366775519574      0.76671565541871
  C           4.57345455942873     -1.59362300543612      0.24441726249022
  H           5.63732329931252     -1.30520623204088      0.26545210821720
  H           4.34610879321590     -2.05364835764953      1.21750872917262
  H           4.46032271939295     -2.37180622619190     -0.52168594588112
  C           2.27297982837234     -2.72830176893687     -2.04702514671404
  H           1.83227127397361     -3.19626255100225     -2.94244136392947
  H           3.33555470896967     -2.54913015036452     -2.26888339049788
  H           2.21751968182081     -3.46825294164202     -1.23307442133045
  C           1.88924888682035     -1.37330975475823      2.56136802873308
  H           1.35592610319885     -0.44281144410941      2.80208787391381
  H           1.60739692362878     -2.13343139033379      3.30791506675289
  H           2.96510165091998     -1.17291904963812      2.68534955183555
  C          -4.02186054089702      1.52478736103734      1.55468380218279
  H          -4.75359331709494      2.32492634741583      1.35551767532067
  H          -4.51021469135256      0.56951133322698      1.31979325766460
  H          -3.82258370819278      1.53544729579718      2.63738612719923
  C          -3.33444783615819     -1.48183737443800      0.05077571271413
  H          -4.13619833061253     -0.78822201037298     -0.24225094478780
  H          -3.46419543237865     -2.39696509262862     -0.55001839046441
  H          -3.49334161594848     -1.75893734586730      1.10487975602439
  C          -1.09310495163596      0.90754720412564      3.60245148797160
  H          -1.17698040919769      0.48334900691453      4.61601315184835
  H          -0.05353704983867      1.23471027593671      3.45332034388172
  H          -1.72257837639556      1.81113401036938      3.56570236600788
  C           0.07028122102942      4.17789133696050     -2.65159351735787
  H          -0.69893152699799      3.60606974495784     -2.11383642072296
  H          -0.35341437393914      5.14972329551409     -2.95300280193750
  H           0.31319879137418      3.62051237359945     -3.57073487617332
  C           3.25261920072776      3.03519118529211     -3.83992257199139
  H           3.64514118262414      2.45477585051311     -4.69112753956436
  H           2.44639431951435      3.67415508628745     -4.22906678259063
  H           4.05897471925960      3.69545958016665     -3.49311956215645
  C           4.58338464207353      4.27422377549829     -0.90710252071777
  H           5.30168773703104      4.65669064798138     -0.16349725715758
  H           5.15908159212692      3.69200530314001     -1.64274237152393
  H           4.15552462853140      5.14634793154585     -1.42559946902060
