! wB97X-D4 def2-SVP TightSCF defgrid3 Opt

%pal nprocs 32 end

%loc
  LocMet NEWBOYS
  Occ true
end

* xyz 0 1
  Ru        0.74455        1.54862        0.55354
   P        0.79724        5.58933        0.42542
   P       -1.93785       -0.28838        0.60424
   P        2.49499       -1.38199       -1.09135
   C       -1.97161       -0.83142        2.41691
   H        3.05745        2.47664        1.86587
   H        1.27509        0.30412        1.77890
   H       -0.18709        2.94080        1.27399
   H        0.40874        1.06527       -1.17751
   C        1.92430        6.89952        1.19106
   C       -0.65239        6.61609       -0.16822
   C       -3.00118        1.26736        0.49134
   C       -3.03441       -1.55336       -0.23824
   C        1.60936        5.29267       -1.23612
   C        1.70944       -2.31610        0.34788
   C        1.86777       -2.21828       -2.66954
   C        4.27402       -1.96252       -0.98242
   C       -4.37792        1.22670        1.13653
   H       -4.98949        0.39210        0.74049
   H       -4.90555        2.17781        0.91234
   H       -4.28362        1.17874        2.23627
   H       -3.12498        1.48823       -0.58977
   H       -2.43771        2.10747        0.94678
   C       -3.26117       -1.47435        2.94081
   H       -3.49744       -2.40519        2.39050
   H       -4.13805       -0.81415        2.89784
   H       -3.11238       -1.75408        4.00502
   H       -1.68592        0.03665        3.04703
   H       -1.18004       -1.60257        2.52755
   C       -2.34250       -2.91037       -0.29763
   H       -2.99773       -3.63820       -0.82060
   H       -2.12716       -3.29467        0.71992
   H       -1.38773       -2.82671       -0.85845
   H       -3.22116       -1.21250       -1.27832
   H       -4.01192       -1.64299        0.27433
   C        2.45632       -3.58879       -3.02707
   H        2.00566       -3.93156       -3.98216
   H        2.26273       -4.36804       -2.27697
   H        3.54945       -3.52615       -3.18897
   H        2.13643       -1.54385       -3.50989
   H        0.75997       -2.27081       -2.62071
   C        1.75104       -3.83507        0.30246
   H        1.10576       -4.20886       -0.51384
   H        1.32225       -4.23320        1.24620
   H        2.78947       -4.21041        0.20903
   H        0.64656       -2.00736        0.41908
   H        2.22489       -1.97546        1.27018
   C        5.12477       -1.29271       -2.05558
   H        4.76649       -1.55344       -3.07181
   H        6.17925       -1.62555       -1.95521
   H        5.08758       -0.18904       -1.93652
   H        4.34500       -3.06442       -1.06679
   H        4.67338       -1.66741        0.01075
   C        2.90673        4.51216       -1.06881
   H        3.35983        4.32494       -2.06495
   H        2.70087        3.53446       -0.58252
   H        3.63272        5.08046       -0.45172
   H        1.80120        6.24702       -1.76350
   H        0.91496        4.69098       -1.86042
   C        2.09960        8.18554        0.38499
   H        2.54365        7.99153       -0.60968
   H        2.78567        8.86420        0.93378
   H        1.13797        8.72427        0.26939
   H        2.91927        6.44013        1.36468
   H        1.50434        7.17060        2.18183
   C       -1.42937        7.19613        1.00552
   H       -2.28898        7.78640        0.62531
   H       -0.78719        7.86762        1.61240
   H       -1.81417        6.37947        1.65185
   H       -1.32635        5.95821       -0.75704
   H       -0.30924        7.42890       -0.83828
*