! wB97X-D4 def2-SVP TightSCF defgrid3 Opt

%pal nprocs 32 end

%loc
  LocMet NEWBOYS
  Occ true
end

* xyz 0 1
   P       -2.47443        4.35322        0.97425
   C       -2.85090        4.23941       -0.86890
   C       -3.35797        2.82908        1.61696
   C       -3.82712        5.58012        1.39770
   C       -2.41177        1.63624        1.71954
   H       -2.95859        0.76694        2.14161
   H       -1.99538        1.34113        0.74150
   H       -1.56839        1.88499        2.39862
   H       -3.70612        3.04343        2.64968
   H       -4.24431        2.59718        0.98966
   C       -2.06882        3.14117       -1.57324
   H       -0.97834        3.27871       -1.41414
   H       -2.38464        2.14347       -1.21996
   H       -2.27936        3.18341       -2.66300
   H       -3.93787        4.07828       -1.03296
   H       -2.56460        5.20482       -1.33451
   C       -3.45518        6.98852        0.94949
   H       -3.33745        7.03952       -0.15134
   H       -4.25720        7.69584        1.24819
   H       -2.50613        7.30280        1.43396
   H       -3.95393        5.59127        2.50085
   H       -4.78934        5.27213        0.93588
*