#
# Calculations for dmrchem init guess
#

%Compound

New_Step
! BP86 X2C-SVPall VeryTightSCF defgrid3 NOAUTOSTART
%loc
  LocMet NEWBOYS
  Occ true
end
%id "TPhP"
* xyzfile 0 1 opt1_pet3/TPhP_pet3_opt.xyz
Step_End

New_Step
! BP86 X2C-SVPall VeryTightSCF defgrid3 NOAUTOSTART
%loc
  LocMet NEWBOYS
  Occ true
end
%id "15h"
* xyzfile 0 1 opt1_pet3/15h_pet3_opt.xyz
Step_End

New_Step
! BP86 X2C-SVPall VeryTightSCF defgrid3 NOAUTOSTART
%loc
  LocMet NEWBOYS
  Occ true
end
%id "1b"
* xyzfile 0 1 opt1_pet3/1b_pet3_opt.xyz
Step_End

EndRun