! wB97X-D4 def2-SVP TightSCF defgrid3 Opt

%pal nprocs 32 end

%loc
  LocMet NEWBOYS
  Occ true
end

*xyz 0 1
 Ru        2.36585       -3.10870       -1.21022
  P        0.67358       -3.81672       -3.79211
  H        1.56659       -4.48024       -4.72620
  H       -0.04978       -5.03408       -3.46810
  H       -0.26726       -3.41191       -4.82190
  P        4.08742       -2.46260        1.36947
  H        5.00595       -1.34321        1.25395
  H        3.32967       -1.85663        2.45058
  H        4.95423       -3.21138        2.26259
  H        2.95423       -3.51138       -1.36259
  H        3.61042       -4.51515       -1.66440
  H        3.52819       -5.02535       -2.29357
  H        1.18866       -1.77900       -0.77987
*