! wB97X-D4 def2-SVP TightSCF defgrid3 Opt

%pal nprocs 32 end

%loc
  LocMet NEWBOYS
  Occ true
end

*xyz 0 1
  Ru       -0.34719        1.08372        0.31842
   P        4.19037        1.13784       -0.77672
   P       -3.21887        1.75377        1.19835
   P        0.78066       -4.36144        0.09601
   H       -3.46879        1.83629        3.04436
   H       -0.05830        0.11280        1.83895
   H       -0.30473        1.87868        0.70721
   H       -0.00473        2.87868        0.30721
   H       -0.65572        0.20935       -1.25639
   H        3.86720        2.49902        0.45676
   H        5.59393        0.30660        0.12673
   H       -4.39319        3.12208        0.72335
   H       -4.35457        0.31512        0.85525
   H        2.83255       -0.01500       -0.23053
   H       -0.72907       -3.76150        1.01176
   H        0.84482       -6.08204        0.81341
   H        2.06442       -3.58869        1.20554
*