125
Coordinates from ORCA-job 15h_ptbu3_opt
  Ru         -0.02992878530874      2.74748312877303     -0.06184865114003
  P           1.48814479475074      4.15963529129506     -1.13718782381664
  P          -1.96866573892198      1.81310909590043      0.83687006113340
  P           2.35711625302737     -2.45082634349497     -0.03587872622533
  C          -1.98709874394788      1.53951683982937      2.72290795861309
  H           1.36090698519689      1.97270228584447      0.57063101269781
  H           0.69280322011024      1.45977688357805      0.82763744663816
  H           0.07950054125055      3.70482533851824      1.15507850563445
  H          -1.03653452720848      3.75512241879892     -0.81458582946124
  C           3.22353717316510      4.31763234570922     -0.32026976745188
  C           0.83719300087815      5.96079072715732     -1.30929865212507
  C          -3.55091697604057      2.80972468934853      0.40263787055612
  C          -2.12744025405581      0.09484650048937      0.00384908986915
  C           1.76597958209295      3.48843796190227     -2.91166972495189
  C           2.18076007303141     -3.97195773964290      1.10612422302675
  C           2.27103095983656     -3.06544519025673     -1.84489332776946
  C           4.10056890544254     -1.72642475475572      0.24603471748116
  C           5.26615144523331     -2.71453611154234      0.39830647258981
  H           6.20990325058018     -2.15157924555603      0.50767688255241
  H           5.16719235256102     -3.35119063056469      1.28735015699061
  H           5.37169851213899     -3.36922234411885     -0.47768516660609
  C           3.49566160412367     -3.80364385778764     -2.40434749920816
  H           3.28465668272318     -4.13113238005736     -3.43778082498310
  H           4.38740522761791     -3.16383506978308     -2.44678756298555
  H           3.74803644099987     -4.69939944029172     -1.82113127831663
  C           2.62941818908820     -3.58431404412345      2.52769821864911
  H           2.14814148199639     -2.65344019639342      2.86598400419296
  H           2.32487226355814     -4.38654081852251      3.22126493117482
  H           3.71699038229759     -3.47666518962396      2.62432657818723
  C          -4.85067286636226      2.35556029177366      1.09120353778786
  H          -5.68948325264077      2.94598028493905      0.68452271333226
  H          -5.08871106005257      1.29730136423920      0.93046807562659
  H          -4.82944102146969      2.54443268308683      2.17327334468919
  C          -3.52358524707717     -0.54037374914918     -0.06218141934829
  H          -4.25056271743236      0.05905288842971     -0.62195930854519
  H          -3.44741595413687     -1.51636577369706     -0.57235072360004
  H          -3.93292883075790     -0.72738759405220      0.94059249098813
  C          -2.24192115874269      2.88146746922375      3.43323176425528
  H          -1.99787849374331      2.76091390085995      4.50215728789911
  H          -1.60106653860298      3.67864396445044      3.02807973102472
  H          -3.29137599904706      3.19869977022858      3.37516565237016
  C          -0.31849249937181      6.02210925296323     -2.32744750847311
  H          -1.08802683961113      5.26929283643721     -2.10667908220927
  H          -0.78746717235032      7.01752035243811     -2.25389429378419
  H           0.01748221904951      5.90380781367872     -3.36643191230785
  C           2.39320721349542      4.43371791728742     -3.94699167911709
  H           2.53640983409494      3.88088353787727     -4.89193871317091
  H           1.74601318740628      5.29082118526247     -4.17446235243196
  H           3.37460519025652      4.81472585270139     -3.64197843074009
  C           4.34317432147182      4.85826041702245     -1.22612424847834
  H           5.24235251355935      5.02993073553053     -0.60952796135028
  H           4.62575789830359      4.13944139603343     -2.00697976330594
  H           4.09470433906158      5.80912623458252     -1.71018380372621
  C           2.92239962506182     -5.25192108362704      0.69333515165635
  H           2.78442488687313     -6.02350140968672      1.47112384541820
  H           2.54057775321495     -5.67192235780697     -0.24729644139263
  H           4.00267245924912     -5.09027318462751      0.57887719360257
  C           0.67166198508443     -4.26954919758868      1.23696651269405
  H           0.13012954317285     -3.38110733866446      1.59437792401244
  H           0.20453786316041     -4.59393873592761      0.30105720988539
  H           0.52497508107284     -5.07627734441385      1.97597132606120
  C           4.42791121026916     -0.76814538169105     -0.91363436158078
  H           4.66049492575798     -1.29033312097269     -1.85017089535428
  H           3.60089629208740     -0.06786166677015     -1.09659171834661
  H           5.31514945245627     -0.17167307144120     -0.64306242652288
  C           4.01257221428282     -0.82544418712746      1.49932941509729
  H           3.88658257414317     -1.38415471848742      2.43353152176894
  H           4.94525625945715     -0.24309342499082      1.59172116968791
  H           3.17653486830658     -0.11395147799734      1.41300745857786
  C           1.97199582210291     -1.82786751772935     -2.72147732550641
  H           1.10722760324843     -1.26832592894979     -2.33162379852568
  H           2.81410663409079     -1.13166740630094     -2.79767593181767
  H           1.72891369539555     -2.15997169139242     -3.74557840211861
  C           1.03933610982894     -3.97700242630982     -2.00252872665604
  H           1.16035885719940     -4.95372871904540     -1.51722037364150
  H           0.12862522282034     -3.49854043824268     -1.60894291022730
  H           0.87493401414602     -4.16545157509033     -3.07688873656177
  C           0.39948092224071      3.01859426762821     -3.45199093499860
  H          -0.32643021048672      3.82825395005157     -3.57426031541427
  H           0.55067513571225      2.54686180658384     -4.43841606232401
  H          -0.05321581577570      2.27046102395179     -2.78828428416005
  C           2.62470903117189      2.21340228860326     -2.82481547585314
  H           3.67839674645041      2.41780330211547     -2.59189094857895
  H           2.22472024783980      1.51685799840011     -2.07252182923721
  H           2.60290406547797      1.70024126868757     -3.80115096728376
  C           3.68596125198218      2.94998026188247      0.22216653742843
  H           3.10933184799673      2.65614521401552      1.10803671848179
  H           3.63194755024648      2.13711757675059     -0.50803023940751
  H           4.73964917990310      3.04389183656591      0.53708665869977
  C           3.11943573995614      5.20911707969009      0.93195214746815
  H           4.05108673601609      5.10509165294383      1.51347263525061
  H           3.00127192037821      6.27463283927144      0.69984434700796
  H           2.28153363403584      4.89282098515164      1.57151750838442
  C           1.87632171647107      7.01266503600326     -1.73607030094306
  H           1.35798978043851      7.97723295712378     -1.86995265871758
  H           2.65774502204341      7.17442302146057     -0.98287103296756
  H           2.36239745575493      6.77211850786723     -2.68995107516579
  C           0.21973386459028      6.39273992496004      0.03631733521594
  H           0.93767380369700      6.42127996051368      0.86276800685624
  H          -0.19816315638968      7.40773165405793     -0.07876011424321
  H          -0.58323250459165      5.70535085634264      0.32565578149987
  C          -3.32962417233294      4.29572251143915      0.75437131885678
  H          -4.17404969661014      4.87757688421798      0.34796233479737
  H          -3.29165825365495      4.48483819590196      1.83237414005976
  H          -2.39758721702587      4.65984798979391      0.30746631287602
  C          -3.75939199852574      2.78280523186942     -1.12431013266646
  H          -2.84479796679082      3.10190372609449     -1.64671918564439
  H          -4.06891689141587      1.80312539583894     -1.50845618863613
  H          -4.56060799498118      3.49666506549710     -1.37751004770538
  C          -1.18908297286575     -0.93217648821430      0.65969384481301
  H          -0.14484051244206     -0.59321529263630      0.69181819826948
  H          -1.50062059854718     -1.22602959010502      1.66997410634442
  H          -1.19632816167814     -1.84512149814605      0.04083036787603
  C          -1.56606833546161      0.29835338640643     -1.41939261128152
  H          -1.54684982226281     -0.66747295039260     -1.95422053254244
  H          -2.14055082515788      1.00744239756670     -2.02554843634500
  H          -0.51655905947021      0.64655195764686     -1.36620886395771
  C          -0.58180314419084      1.09375336529958      3.17903960108969
  H          -0.22071949406723      0.18940142303406      2.67616094457236
  H           0.14867659398635      1.89371658961596      2.99705031406685
  H          -0.61338951221140      0.89054475031789      4.26273027786726
  C          -3.02016437995920      0.51587503099007      3.22606741417434
  H          -2.79567234602726     -0.50770352453541      2.89796865126576
  H          -3.00607155281208      0.50987670507134      4.32951292700887
  H          -4.04431743465477      0.75561180891043      2.91466549530205
