85
Coordinates from ORCA-job annoying E -1726.934923655181
  Ru         -0.00021502011429     -0.21469520371010     -0.26362543651609
  P          -2.33936125280740     -0.14495264054203     -0.24532898992300
  P           2.31023421891499      0.08022803446017     -0.06237487329997
  H           0.15834005818204     -1.65642707840193     -1.17509896940609
  H           0.08509794959741     -0.96120821730674     -1.75937520203635
  H           0.00441319662515      0.88714664252976     -1.35764364505483
  H          -0.14366571218083      0.95329039989767      0.85745230392502
  C          -3.07703561881051      1.53367143686648     -0.78715166829311
  C          -3.19420610159213     -1.49669606203321     -1.31450242006990
  C          -2.89357362577575     -0.44894867392892      1.56671863731473
  C           2.88854136323161      1.90619193740433      0.01130073609527
  C           2.80627534626538     -0.74861233730139      1.59180714623264
  C           3.35154484235301     -0.75974117575770     -1.44305671480455
  C          -2.88233345783147     -2.87325191422171     -0.69634178337407
  H          -3.18789081815492     -3.65793424715504     -1.40869648568035
  H          -1.80301168701733     -2.99129041827001     -0.51492729316106
  H          -3.41931670586253     -3.06223724811128      0.24156719864000
  C          -2.55982417498006     -1.53877976259130     -2.72138133514648
  H          -1.48988340294253     -1.76892080507986     -2.67472493930430
  H          -3.04979878801546     -2.34431359410003     -3.29461047116833
  H          -2.68177475555480     -0.61191252054635     -3.28982118629962
  C          -4.71585779074182     -1.37071766681425     -1.50295849031115
  H          -4.98299646142192     -0.51053126348086     -2.13178933623086
  H          -5.08355529458942     -2.27161403576737     -2.02405472320855
  H          -5.26839136742622     -1.29058877979708     -0.55979165053420
  C          -4.53263520922605      1.78450686848684     -0.35635548073088
  H          -4.86997845936128      2.73885598349075     -0.79618927881007
  H          -5.22538513416769      1.00637619998154     -0.69808114840097
  H          -4.63863824951640      1.88142989642027      0.73170732240092
  C          -2.20198615697910      2.68077361497813     -0.24360769725742
  H          -1.17954568525569      2.60574456025551     -0.63322231056646
  H          -2.64124336412689      3.63686181646180     -0.57740642413264
  H          -2.13718447378226      2.70453689398733      0.84892664212885
  C          -2.99840982041718      1.65162778037511     -2.32020760548084
  H          -3.74299490115555      1.03068241700144     -2.83528384154672
  H          -3.20142731483225      2.69873364952476     -2.60112362187275
  H          -1.99473049382033      1.39426345212781     -2.69056798048135
  C          -4.33642015772450     -0.92477520506488      1.79488074366109
  H          -5.07825676335787     -0.21341875894086      1.40764024147102
  H          -4.54120718338291     -1.90848769723500      1.35414650699646
  H          -4.50947957338705     -1.01750605594125      2.88103273889114
  C          -1.91115571346499     -1.48911183411861      2.14141985498698
  H          -0.88725387687581     -1.08183613059656      2.12416875570877
  H          -2.16127151998640     -1.68555540660412      3.19832607800624
  H          -1.91606523359527     -2.44927616891671      1.61327802583800
  C          -2.67979518977370      0.81553748300668      2.42117247123626
  H          -3.40820008152345      1.60822178417950      2.20993037110775
  H          -2.80350536291021      0.53785842374611      3.48191658568869
  H          -1.66584622515847      1.21666093669852      2.28985087275489
  C           3.22589049432735     -2.28939829091647     -1.31006064721931
  H           2.17652101466189     -2.60498563897158     -1.22234871617315
  H           3.63890643910224     -2.75502604017582     -2.22051493097186
  H           3.78918031816830     -2.69376981916549     -0.45939078598501
  C           4.84915338101953     -0.41051552122655     -1.48453114804750
  H           5.33537858927113     -1.03704434150617     -2.25221285051991
  H           5.02833196149034      0.63471615038595     -1.76828233021878
  H           5.36371480880933     -0.60138979829274     -0.53454432531070
  C           2.74695914752304     -0.41689318327742     -2.82134143846518
  H           1.69566332259638     -0.72082606380884     -2.88808733350514
  H           2.80122354631731      0.64699906248331     -3.07212249721875
  H           3.31027404995241     -0.96748869232602     -3.59411237534440
  C           1.99050778360892     -2.05469806481324      1.69312152090541
  H           2.29482410313773     -2.81791800761403      0.96954606092814
  H           2.11348588106519     -2.48259147856464      2.70287791678680
  H           0.91408755320463     -1.87157395680728      1.54689978615808
  C           2.32824144263151      0.13295088757824      2.76142343897186
  H           1.27663279327771      0.42916240836069      2.63621500014722
  H           2.41494966947800     -0.44648586200211      3.69628155431205
  H           2.93467891079885      1.03891072707453      2.88579188031524
  C           4.29006690846125     -1.07757361873804      1.81352795745915
  H           4.67023452395633     -1.82135814838888      1.10115761285973
  H           4.93360099480690     -0.19022323567593      1.75813084220330
  H           4.41170712338414     -1.50812498929583      2.82282488174150
  C           1.87860177563852      2.75686476747074      0.80694719509367
  H           2.25684479505487      3.79346507266190      0.83803269446281
  H           0.89536301843518      2.75260839068464      0.32295578382125
  H           1.73490131732464      2.42164521507908      1.83931538860835
  C           2.87383257995400      2.49982832663812     -1.40974456668266
  H           2.98652702579522      3.59402454083049     -1.33012574446916
  H           3.69631011819832      2.13732665083548     -2.03916149122417
  H           1.91772685242367      2.29855730465249     -1.91579817441922
  C           4.28263867895577      2.12838027299047      0.62363717480520
  H           4.54982250206823      3.19340512499849      0.51290077066480
  H           4.30431793002109      1.90664192037409      1.69897112775155
  H           5.07177684951117      1.54282061892301      0.13802553779710
