40
Coordinates from ORCA-job TPhP_ptbu3_opt E -814.772990713110
  P          -2.82831104379706      4.36014577631067      0.96919991418408
  C          -2.81486436549372      4.32813231714968     -0.94417155914501
  C          -3.49108064248358      2.66534544057807      1.56127121619930
  C          -4.09814521194642      5.68684274682884      1.50742487380675
  C          -2.29879124110249      1.68330847219532      1.53085516445575
  H          -2.59512968754915      0.73896957745486      2.01968494496993
  H          -1.96388506190659      1.43356803536805      0.51816201479681
  H          -1.43804624205293      2.09543249245251      2.08035050996783
  C          -2.11194263401895      3.04168606636080     -1.41703287940746
  H          -1.14356974343924      2.89913686726661     -0.91262017406917
  H          -2.71985261812734      2.13986031581884     -1.27084894366418
  H          -1.91264888772709      3.12614759230808     -2.49881068303259
  C          -3.81467339143202      6.99052154272210      0.73743595685990
  H          -4.11140670589492      6.94065488734461     -0.31789396799211
  H          -4.39605298287205      7.80643738366917      1.19935870859370
  H          -2.75127463404200      7.27113982145421      0.79126131468324
  C          -5.58890605341195      5.35000431885167      1.35770925676560
  H          -6.19248060038440      6.22296350496195      1.66373610185537
  H          -5.86243171240768      5.10776467167867      0.32196329960286
  H          -5.89614480006333      4.50973829796216      1.99461780505314
  C          -3.79529197569023      6.02235753701429      2.98489121497825
  H          -2.73181931295229      6.27484181774919      3.11897230375632
  H          -4.39454537974929      6.89869979239592      3.28727036599165
  H          -4.03809284511038      5.20859470734599      3.67696739382776
  C          -1.89290534082348      5.47905830224354     -1.40481340927517
  H          -2.30956361644566      6.47480304531971     -1.21782468196098
  H          -0.91438953212124      5.42158667843992     -0.90286983900122
  H          -1.72370601104821      5.39432299291545     -2.49233826188781
  C          -4.16476455413914      4.43721145554222     -1.66818895207039
  H          -4.86154939585604      3.63862364632036     -1.37996351027963
  H          -4.66048643567637      5.40061592684390     -1.48856137579676
  H          -4.00238699557673      4.35768818619319     -2.75782227611910
  C          -4.67285290926189      2.05437058975939      0.79409884443195
  H          -5.55252391844555      2.71198289981014      0.78492933747661
  H          -4.41838578513360      1.81458956294505     -0.24699910457544
  H          -4.97224767619358      1.10785749239731      1.27828110411237
  C          -3.88002540022723      2.77331936926617      3.04776423779453
  H          -3.07436942758622      3.22626440922668      3.64634470669029
  H          -4.80240082912519      3.34475534064164      3.21163654982818
  H          -4.05384347868464      1.75753720889290      3.44161337759482
