31

  Ru          0.71913732389541      1.49696870366297      0.20985694024070
  P           2.08953373150846      2.81989621360778     -1.05240794673900
  P          -1.29110629586114      0.59863720213882      0.82465718009247
  C          -1.53614563040133     -0.01479778618998      2.54374993485786
  H           1.75217543091386      1.93383202478103      1.51863272658812
  H           1.03573180991137      1.54444483842591      1.90240562428666
  H          -0.07818352085982      2.90849119282826      0.43162720648099
  H          -0.01402224356129      1.38710857706081     -1.24043006604737
  H          -0.80643272327095     -0.80876660308547      2.76228296044913
  H          -2.55476800597050     -0.40277629625811      2.70756455591736
  H          -1.35020530430466      0.81644425340780      3.24119597456177
  C           3.68081009879109      3.42464832920836     -0.35049175577417
  H           4.31205984324405      2.56760342603377     -0.07153474558243
  H           4.23220113448031      4.06695597045188     -1.05640861070191
  H           3.46367553637704      3.99683777881314      0.56458676776389
  C           1.33075007997623      4.40055745270192     -1.59159423283027
  H           1.07751266680158      4.99152547240400     -0.69982662346215
  H           0.39258281508554      4.17158099984161     -2.11731135845744
  H           2.00023964570268      4.97912188599668     -2.24894705995755
  C          -2.71398333465620      1.74545659433810      0.66591599082837
  H          -3.67089404481092      1.25604074894715      0.91089605183293
  H          -2.73858066610615      2.12500705365235     -0.36578589048722
  H          -2.54990167472997      2.60377734769940      1.33297345875956
  C          -1.92099581545010     -0.83259189499494     -0.14790221122766
  H          -1.24613251232586     -1.69488703361544     -0.04781655874868
  H          -1.95125509545703     -0.54493633943125     -1.20934360141254
  H          -2.92961535139702     -1.13305095488925      0.17887355908726
  C           2.65343740437731      2.16420923378975     -2.67854704727116
  H           3.27721010193815      1.26952459840718     -2.54003955470167
  H           3.23249790800741      2.91499329837676     -3.23987506870867
  H           1.76726537721528      1.87489082433993     -3.26255253594193
