31
Coordinates from ORCA-job 15h_pme3_opt E -1019.385519818963
  Ru         -0.00930848840010     -0.36739665371538     -0.05020741314422
  P          -2.28661027180328     -0.10396572828945     -0.06532805251170
  P           2.26956566657756     -0.11776514293843     -0.01840924660973
  H          -0.01129641371045     -1.92189558037978     -0.80529067043565
  H           0.00812930021525     -1.29822215072124     -1.46392883883333
  H           0.00498656410809      0.60679300682825     -1.26209961465675
  H          -0.01604128200810      0.95334710608216      0.93277955534433
  C          -3.17255757957021     -0.48240652080179      1.50295159840305
  H          -3.02188352086391     -1.54108985692240      1.76586736549452
  H          -2.74662234951003      0.13469263719282      2.30860986708585
  H          -4.25373064223012     -0.28333536616362      1.42516011611606
  C          -3.28179612242571     -1.05984943657192     -1.28221292493276
  H          -2.91834322811355     -0.83015869054099     -2.29563449436529
  H          -3.13456041388857     -2.13655679947766     -1.10618656445628
  H          -4.35704528186834     -0.82599606085266     -1.22113675779980
  C          -2.85235724416518      1.60792335053940     -0.40005732567017
  H          -2.47412718046702      1.92123638838205     -1.38439497572763
  H          -3.95116768264415      1.69059276957358     -0.38312765786861
  H          -2.41419698450351      2.27549733502486      0.35585661711503
  C           3.28338420700100     -1.07776631550906     -1.21653213078357
  H           3.12455922885776     -2.15380924496186     -1.04663770967257
  H           2.94322767894590     -0.84274485734880     -2.23679985968155
  H           4.35877539850567     -0.85195482843053     -1.13212027074590
  C           3.12071199344026     -0.50435965342866      1.56705695765619
  H           2.68182375398692      0.11399209387637      2.36477462766252
  H           2.95837779472265     -1.56253995959844      1.82500068251430
  H           4.20442246846963     -0.31161503520244      1.51201238608420
  C           2.85286601830368      1.59106974227969     -0.33831997357051
  H           3.95164181974014      1.66650679638943     -0.29943278000537
  H           2.49630934431641      1.90871246699532     -1.32934005651573
  H           2.40415430898134      2.26004788869118      0.41012832451106
