13

  P           1.84073979741809     -0.49737182196181     -0.11577210627512
  C           1.57094818249963     -1.85306245939017      1.11058760813705
  H           1.83394905104769     -1.47815359262558      2.11208784992725
  H           0.51089451552241     -2.14459175466992      1.12936847604620
  H           2.17921247437159     -2.74514665373875      0.88892760952854
  C           1.56339355391204     -1.40788921194860     -1.69186760399368
  H           2.14454890345891     -2.34273163043507     -1.74981642755879
  H           1.83640750245984     -0.75431695878503     -2.53324338151862
  H           0.49204817533508     -1.63630107424037     -1.78985126178164
  C           3.68762518531367     -0.46786553727876     -0.06628055075024
  H           4.07816425062136      0.18997973499468     -0.85627523398629
  H           4.12525730982112     -1.47139352185607     -0.19374376282722
  H           4.00893658554638     -0.05552035991750      0.90305390693240
