#
# Calculations for different basis sets
#

%Compound

New_Step
! BP86 X2C-SVPall VeryTightSCF defgrid3 NOAUTOSTART
%loc
  LocMet NEWBOYS
  Occ true
end
%id "TPhP"
* xyz 0 1
  P           0.79012846627248     -4.34118324120391      0.17040736969510
  C          -0.73847184295114     -3.75497214260747      1.03509613960602
  H          -0.84310836738516     -2.66612329428791      0.90444342369554
  H          -0.72447173124439     -3.98300472512442      2.11444163339169
  H          -1.62428077073773     -4.22992069480920      0.58413382086226
  C           0.82734183408939     -6.08744623952562      0.78455518207468
  H           0.72997345421910     -6.14932031048665      1.88177154973096
  H           1.77406273774341     -6.56484615538673      0.48552094199909
  H           0.00686568481859     -6.65984665867268      0.32328118267064
  C           2.06606918397924     -3.60522027040696      1.29216567322978
  H           3.06389853325917     -3.98043357498179      1.01438550382425
  H           1.88039990166628     -3.84319510135054      2.35333406700495
  H           2.07787291627075     -2.51028759115611      1.17145351221505
*
Step_End

New_Step
! BP86 X2C-SVPall VeryTightSCF defgrid3 NOAUTOSTART
%loc
  LocMet NEWBOYS
  Occ true
end
%id "15h"
* xyz 0 1
  Ru         -2.70775091984899      1.50276279102189     -0.18711914139701
  P          -3.38504588836106      3.67946083066695     -0.16207483715779
  P          -1.62055459455718     -2.20016305460904      2.29735487816443
  H          -2.69118008722837     -0.00713465093794      0.54987525327963
  H          -2.38751419926777      1.77705060931180      1.31381715822003
  H          -2.21291556618394     -0.16319254934787     -0.18673321261484
  H          -4.21127550989430      1.20243209047466      0.09312615798198
  C          -4.47966302714830      4.05146447247549      1.25675788462765
  H          -5.35955582054120      3.39390266917945      1.20892814248856
  H          -4.79969140592201      5.10580322489288      1.25822496192156
  H          -3.94101493685396      3.82406251901183      2.18795984651579
  C          -2.10184584096084      4.98849211801541     -0.00279268212544
  H          -2.54694083325410      5.99379725084304      0.07231843494486
  H          -1.42840318033776      4.95984496951727     -0.87350987676986
  H          -1.50179474492610      4.78954684974026      0.89826027808079
  C          -4.37120279025580      4.30522837173582     -1.58326762118645
  H          -5.25535392598906      3.66304625251744     -1.71465563947749
  H          -3.76807750803721      4.25040330982236     -2.50283765781265
  H          -4.69709795786421      5.34685719918759     -1.43276836216906
  C          -0.17765774933626     -1.04305917672947      2.33232582349656
  H          -0.30216961364554     -0.26745484767068      1.56070659175310
  H          -0.14772496535820     -0.53246740927391      3.30826738225967
  H           0.78100394277776     -1.56652147891242      2.17672269728086
  C          -1.22449365462785     -3.15257312816276      0.76114599926750
  H          -1.90426000911072     -4.01633962183699      0.67825061098320
  H          -0.18282722652364     -3.51558615679121      0.74464447067782
  H          -1.39521631975208     -2.51846761785637     -0.12231712202386
  C          -1.04496479765717     -3.42859731424267      3.55726747167643
  H          -0.02296685382814     -3.79414273971732      3.35941360088995
  H          -1.06934113937280     -2.96833360006040      4.55761216252385
  H          -1.73269287613283     -4.28941218226521      3.57114634570010
*
Step_End

New_Step
! BP86 X2C-SVPall VeryTightSCF defgrid3 NOAUTOSTART
%loc
  LocMet NEWBOYS
  Occ true
end
%id "1b"
* xyz 0 1
  Ru          0.71913732389541      1.49696870366297      0.20985694024070
  P           2.08953373150846      2.81989621360778     -1.05240794673900
  P          -1.29110629586114      0.59863720213882      0.82465718009247
  P           1.84073979741809     -0.49737182196181     -0.11577210627512
  C          -1.53614563040133     -0.01479778618998      2.54374993485786
  H           1.75217543091386      1.93383202478103      1.51863272658812
  H           1.03573180991137      1.54444483842591      1.90240562428666
  H          -0.07818352085982      2.90849119282826      0.43162720648099
  H          -0.01402224356129      1.38710857706081     -1.24043006604737
  H          -0.80643272327095     -0.80876660308547      2.76228296044913
  H          -2.55476800597050     -0.40277629625811      2.70756455591736
  H          -1.35020530430466      0.81644425340780      3.24119597456177
  C           3.68081009879109      3.42464832920836     -0.35049175577417
  H           4.31205984324405      2.56760342603377     -0.07153474558243
  H           4.23220113448031      4.06695597045188     -1.05640861070191
  H           3.46367553637704      3.99683777881314      0.56458676776389
  C           1.33075007997623      4.40055745270192     -1.59159423283027
  H           1.07751266680158      4.99152547240400     -0.69982662346215
  H           0.39258281508554      4.17158099984161     -2.11731135845744
  H           2.00023964570268      4.97912188599668     -2.24894705995755
  C          -2.71398333465620      1.74545659433810      0.66591599082837
  H          -3.67089404481092      1.25604074894715      0.91089605183293
  H          -2.73858066610615      2.12500705365235     -0.36578589048722
  H          -2.54990167472997      2.60377734769940      1.33297345875956
  C          -1.92099581545010     -0.83259189499494     -0.14790221122766
  H          -1.24613251232586     -1.69488703361544     -0.04781655874868
  H          -1.95125509545703     -0.54493633943125     -1.20934360141254
  H          -2.92961535139702     -1.13305095488925      0.17887355908726
  C           2.65343740437731      2.16420923378975     -2.67854704727116
  H           3.27721010193815      1.26952459840718     -2.54003955470167
  H           3.23249790800741      2.91499329837676     -3.23987506870867
  H           1.76726537721528      1.87489082433993     -3.26255253594193
  C           1.57094818249963     -1.85306245939017      1.11058760813705
  H           1.83394905104769     -1.47815359262558      2.11208784992725
  H           0.51089451552241     -2.14459175466992      1.12936847604620
  H           2.17921247437159     -2.74514665373875      0.88892760952854
  C           1.56339355391204     -1.40788921194860     -1.69186760399368
  H           2.14454890345891     -2.34273163043507     -1.74981642755879
  H           1.83640750245984     -0.75431695878503     -2.53324338151862
  H           0.49204817533508     -1.63630107424037     -1.78985126178164
  C           3.68762518531367     -0.46786553727876     -0.06628055075024
  H           4.07816425062136      0.18997973499468     -0.85627523398629
  H           4.12525730982112     -1.47139352185607     -0.19374376282722
  H           4.00893658554638     -0.05552035991750      0.90305390693240
*
Step_End

EndRun