! BP86 def2-QZVP VeryTightSCF defgrid3

*xyz 0 1
P -2.29773900 1.27158900 -0.14124300
C -3.22530300 0.70179900 -1.64936100
C -4.33139200 1.37833600 -2.21045200
C -2.74699900 -0.46688100 -2.28889000
C -4.94847100 0.89146100 -3.37718100
H -4.71221100 2.29438300 -1.73196300
C -3.37293000 -0.95956000 -3.44550000
H -1.87062500 -0.99311100 -1.87421600
C -4.47484200 -0.27886400 -3.99520000
H -5.80887300 1.43169200 -3.80439000
H -2.99059000 -1.87366200 -3.92773400
H -4.95991800 -0.65793200 -4.90891700
C -3.11043600 0.29062600 1.21396600
C -2.45795100 0.27466200 2.46989300
C -4.29662600 -0.46028800 1.05552000
C -2.99006000 -0.45428600 3.54599800
H -1.51936900 0.83911200 2.60155200
C -4.82084200 -1.20115000 2.13032500
H -4.81360400 -0.46687200 0.08298900
C -4.17275300 -1.19761700 3.37775000
H -2.47174200 -0.45188800 4.51844400
H -5.74564800 -1.78410700 1.99054700
H -4.58529600 -1.77893900 4.21784000
C -2.99641600 2.97362200 0.13103400
C -4.05708100 3.26992600 1.01599300
C -2.38072700 4.03639600 -0.57255900
C -4.49613900 4.59573900 1.18472900
H -4.54269100 2.45742700 1.57915200
C -2.82951600 5.35765400 -0.41372900
H -1.53699400 3.82251300 -1.25025500
C -3.88780200 5.64147900 0.46897600
H -5.32309500 4.81131000 1.88065500
H -2.34208900 6.17235500 -0.97318500
H -4.23357800 6.67894100 0.60307100
*